% ------------------------------------------------------------
% 9x9 Sudoku puzzle ('.' is empty)
%
%   C→  1 2 3   4 5 6   7 8 9
% R
% 1     5 3 . | . 7 . | . . .
% 2     6 . . | 1 9 5 | . . .
% 3     . 9 8 | . . . | . 6 .
%       ------+-------+------
% 4     8 . . | . 6 . | . . 3
% 5     4 . . | 8 . 3 | . . 1
% 6     7 . . | . 2 . | . . 6
%       ------+-------+------
% 7     . 6 . | . . . | 2 8 .
% 8     . . . | 4 1 9 | . . 5
% 9     . . . | . 8 . | . 7 9
%
% String rows:
% 1: 53..7....
% 2: 6..195...
% 3: .98....6.
% 4: 8...6...3
% 5: 4..8.3..1
% 6: 7...2...6
% 7: .6....28.
% 8: ...419..5
% 9: ....8..79
% ------------------------------------------------------------

% givens
given(1,1,5).  given(1,2,3).                  given(1,5,7).
given(2,1,6).  given(2,4,1).  given(2,5,9).   given(2,6,5).
               given(3,2,9).  given(3,3,8).                                                given(3,8,6).

given(4,1,8).                                 given(4,5,6).                                               given(4,9,3).
given(5,1,4).                 given(5,4,8).                   given(5,6,3).                               given(5,9,1).
given(6,1,7).                                 given(6,5,2).                                               given(6,9,6).

               given(7,2,6).                                                given(7,7,2).  given(7,8,8).
                              given(8,4,4).   given(8,5,1).   given(8,6,9).                               given(8,9,5).
                                              given(9,5,8).                                given(9,8,7).  given(9,9,9).
